p cnf 30 193
1 0
2 0
3 0
4 0
5 0
6 0
7 8 0
-7 -8 0
9 10 11 0
-9 -10 0
-9 -11 0
-10 -11 0
12 13 0
-12 -13 0
14 0
-1 15 0
-19 -20 0
-20 -19 0
-21 -23 0
-22 -23 0
-22 -24 0
-23 -21 0
-23 -22 0
-23 -24 0
-24 -22 0
-24 -23 0
-25 -26 0
-25 -27 0
-26 -25 0
-26 -27 0
-27 -25 0
-27 -26 0
-27 -28 0
-28 -27 0
-29 -30 0
-30 -29 0
-2 16 0
-19 -20 0
-20 -19 0
-21 -23 0
-22 -23 0
-22 -24 0
-23 -21 0
-23 -22 0
-23 -24 0
-24 -22 0
-24 -23 0
-25 -26 0
-25 -27 0
-26 -25 0
-26 -27 0
-27 -25 0
-27 -26 0
-27 -28 0
-28 -27 0
-29 -30 0
-30 -29 0
-3 17 0
-19 -20 0
-20 -19 0
-21 -23 0
-22 -23 0
-22 -24 0
-23 -21 0
-23 -22 0
-23 -24 0
-24 -22 0
-24 -23 0
-25 -26 0
-25 -27 0
-26 -25 0
-26 -27 0
-27 -25 0
-27 -26 0
-27 -28 0
-28 -27 0
-29 -30 0
-30 -29 0
-4 18 0
-19 -20 0
-20 -19 0
-21 -23 0
-22 -23 0
-22 -24 0
-23 -21 0
-23 -22 0
-23 -24 0
-24 -22 0
-24 -23 0
-25 -26 0
-25 -27 0
-26 -25 0
-26 -27 0
-27 -25 0
-27 -26 0
-27 -28 0
-28 -27 0
-29 -30 0
-30 -29 0
-6 19 0
-6 20 0
-19 -20 0
-20 -19 0
-21 -23 0
-22 -23 0
-22 -24 0
-23 -21 0
-23 -22 0
-23 -24 0
-24 -22 0
-24 -23 0
-25 -26 0
-25 -27 0
-26 -25 0
-26 -27 0
-27 -25 0
-27 -26 0
-27 -28 0
-28 -27 0
-29 -30 0
-30 -29 0
-7 21 0
-8 22 0
-8 23 0
-8 24 0
-19 -20 0
-20 -19 0
-21 -23 0
-22 -23 0
-22 -24 0
-23 -21 0
-23 -22 0
-23 -24 0
-24 -22 0
-24 -23 0
-25 -26 0
-25 -27 0
-26 -25 0
-26 -27 0
-27 -25 0
-27 -26 0
-27 -28 0
-28 -27 0
-29 -30 0
-30 -29 0
-9 25 0
-10 26 0
-11 27 0
-11 28 0
-19 -20 0
-20 -19 0
-21 -23 0
-22 -23 0
-22 -24 0
-23 -21 0
-23 -22 0
-23 -24 0
-24 -22 0
-24 -23 0
-25 -26 0
-25 -27 0
-26 -25 0
-26 -27 0
-27 -25 0
-27 -26 0
-27 -28 0
-28 -27 0
-29 -30 0
-30 -29 0
-12 29 0
-13 30 0
-19 -20 0
-20 -19 0
-21 -23 0
-22 -23 0
-22 -24 0
-23 -21 0
-23 -22 0
-23 -24 0
-24 -22 0
-24 -23 0
-25 -26 0
-25 -27 0
-26 -25 0
-26 -27 0
-27 -25 0
-27 -26 0
-27 -28 0
-28 -27 0
-29 -30 0
-30 -29 0
5 0
11 14 0
